NAME : n150w60.004.998.tour
COMMENT : Length = 998
COMMENT : Found by LKH [Keld Helsgaun] Tue May  2 05:48:17 2017
TYPE : TOUR
DIMENSION : 151
TOUR_SECTION
1
45
130
132
40
138
114
5
145
93
4
78
27
115
99
12
47
148
43
88
60
13
63
136
77
76
85
8
39
82
150
84
9
36
67
22
108
113
137
42
141
33
44
49
71
56
104
123
38
73
19
37
126
124
118
146
119
46
17
75
149
50
35
74
65
101
68
24
80
106
16
48
139
29
128
87
144
125
95
96
120
140
55
102
18
57
7
66
143
103
90
129
26
69
61
134
64
10
94
147
72
109
142
70
79
14
97
15
122
51
98
59
28
111
30
3
86
100
41
133
54
2
135
53
127
25
58
20
31
34
62
92
110
121
131
6
116
91
107
52
89
81
23
117
11
105
21
32
83
151
112
-1
EOF
